
  14    0


   0   8 2 3 4 5 10 11 12 13 
  10   2 9 8 
   4   2 7 6 
   8   1 6 
   4   1 6 
   4   1 14
   5   1 14
   6   1 14
   6   1 14
   8   1 14
  10   1 14
   2   1 14
   2   1 14
   0   0 
